0  8  5 14 12  0  0  0  0  0  0  0  0  0  0  0  0  0  0  0  0  0  0  0  0
8  0  0  0  0 23  0  0  0  0  0  0  0  0  0  0  0  0  0  0  0  0  0  0  0
5  0  0  0  0  0 21  0  0  0  0  0  0  0  0  0  0  0  0  0  0  0  0  0  0
14  0  0  0  0  0  0  2  9  0  0  0  0  0  0  0  0  0  0  0  0  0  0  0  0
12  0  0  0  0  0  0  0  0  4  0  0  0  0  0  0  0  0  0  0  0  0  0  0  0
0 23  0  0  0  0  0  0  0  0  8 13  0  0  0  0  0  0  0  0  0  0  0  0  0
0  0 21  0  0  0  0  0  0  0  0  0  0  0  0  0  0  0  0  0  0  0  0  0  0
0  0  0  2  0  0  0  0  0  0  0  0 29 35  0  0  0  0  0  0  0  0  0  0  0
0  0  0  9  0  0  0  0  0  0  0  0  0  0  0  0  0  0  0  0  0  0  0  0  0
0  0  0  0  4  0  0  0  0  0  0  0  0  0 12 15  0  0  0  0  0  0  0  0  0
0  0  0  0  0  8  0  0  0  0  0  0  0  0  0  0  0  0  0  0  0  0  0  0  0
0  0  0  0  0 13  0  0  0  0  0  0  0  0  0  0  7  9  0  0  0  0  0  0  0
0  0  0  0  0  0  0 29  0  0  0  0  0  0  0  0  0  0  0  0  0  0  0  0  0
0  0  0  0  0  0  0 35  0  0  0  0  0  0  0  0  0  0  0  0  0  0  0  0  0
0  0  0  0  0  0  0  0  0 12  0  0  0  0  0  0  0  0 10  3  0  0  0  0  0
0  0  0  0  0  0  0  0  0 15  0  0  0  0  0  0  0  0  0  0  0  0  0  0  0
0  0  0  0  0  0  0  0  0  0  0  7  0  0  0  0  0  0  0  0  0  0  0  0  0
0  0  0  0  0  0  0  0  0  0  0  9  0  0  0  0  0  0  0  0 20 35  5  0  0
0  0  0  0  0  0  0  0  0  0  0  0  0  0 10  0  0  0  0  0  0  0  0  0  0
0  0  0  0  0  0  0  0  0  0  0  0  0  0  3  0  0  0  0  0  0  0  0 26 31
0  0  0  0  0  0  0  0  0  0  0  0  0  0  0  0  0 20  0  0  0  0  0  0  0
0  0  0  0  0  0  0  0  0  0  0  0  0  0  0  0  0 35  0  0  0  0  0  0  0
0  0  0  0  0  0  0  0  0  0  0  0  0  0  0  0  0  5  0  0  0  0  0  0  0
0  0  0  0  0  0  0  0  0  0  0  0  0  0  0  0  0  0  0 26  0  0  0  0  0
0  0  0  0  0  0  0  0  0  0  0  0  0  0  0  0  0  0  0 31  0  0  0  0  0
